Minimize
  obj: x0 + x1 + x2 + x3 + x4 + x5

Subject To
  c0: x2 + x3 + x4 = 17
  c1: x0 + x1 + x3 + x5 = 38
  c2: x1 + x3 + x4 = 24
  c3: x2 + x4 + x5 = 11
  c4: x0 + x1 + x2 + x3 + x4 + x5 = 49

Bounds
  x0 >= 0
  x1 >= 0
  x2 >= 0
  x3 >= 0
  x4 >= 0
  x5 >= 0

Generals
  x0 x1 x2 x3 x4 x5

End
